NAME: dataset25
TYPE: TSP
COMMENT: 25 random locations
DIMENSION: 25
EDGE_WEIGHT_TYPE: EUC_2D
NODE_COORD_SECTION
1 1.0 888.0
2 1.0 381.1904761905
3 1.0 30.5
4 1.0 43.3023255814
5 1.0 16.4074074074
6 1.0 -75.1538461538
7 1.0 128.1052631579
8 1.0 87.9195402299
9 1.0 -12.4693877551
10 1.0 -43.9082568807
11 1.0 22.9166666667
12 1.0 -63.1374045802
13 1.0 -41.1126760563
14 1.0 31.7581699346
15 1.0 -8.4634146341
16 1.0 18.6571428571
17 1.0 18.6559139785
18 1.0 -47.5025380711
19 1.0 -124.8173076923
20 1.0 30.3744292237
21 1.0 -49.3913043478
22 1.0 -56.7053941909
23 1.0 28.6666666667
24 1.0 49.0076045627
25 1.0 18.4233576642
EOF
